CMD:
./solvers/bin/cadical --plain --no-reduce -t 1600 ./data/cnfs//gen43/gen43.23.cnf

c --- [ banner ] -------------------------------------------------------------
c 
c CaDiCaL SAT Solver
c Copyright (c) 2016-2024
c A. Biere, M. Fleury, N. Froleyks, K. Fazekas, F. Pollitt, T. Faller
c JKU Linz, University of Freiburg, TU Wien
c 
c Version 2.1.3 5296d3d2a9bf48c154ab2acb5e44625776d821bf
c g++ (Gentoo 12.3.1_p20230526 p2) 12.3.1 20230526 -Wall -Wextra -O3 -DNDEBUG
c Sat Aug 9 07:26:21 PDT 2025 Linux cedar2.int.cedar.computecanada.ca 5.14.0-362.24.2.el9_3.x86_64 x86_64
c 
c --- [ limit ] --------------------------------------------------------------
c 
c setting time limit to 1600 seconds real time (due to '-t 1600')
c 
c --- [ parsing input ] ------------------------------------------------------
c 
c reading DIMACS file from './data/cnfs//gen43/gen43.23.cnf'
c opening file to read './data/cnfs//gen43/gen43.23.cnf'
c found 'p cnf 119327 336676' header
c parsed 336676 clauses in 0.06 seconds process time
c 
c --- [ options ] ------------------------------------------------------------
c 
c   --compact=false                (different from default 'true')
c   --decompose=false              (different from default 'true')
c   --deduplicate=false            (different from default 'true')
c   --elim=false                   (different from default 'true')
c   --probe=false                  (different from default 'true')
c   --reduce=false                 (different from default 'true')
c   --subsume=false                (different from default 'true')
c   --ternary=false                (different from default 'true')
c   --transred=false               (different from default 'true')
c   --vivify=false                 (different from default 'true')
c 
c --- [ solving ] ------------------------------------------------------------
c 
c time measured in process time since initialization
c 
c  seconds  reductions  redundant  irredundant
c         MB    restarts       trail       variables
c          level   conflicts       glue          remaining
c 
c *  0.06 57  0 0   0    0    0  0% 0 336586 118698 99%
c {  0.06 58  0 0   0    0    0  0% 0 336586 118698 99%
c i  0.09 58 192 0   0  510  255  4% 1 336586 118697 99%
c i  0.09 58 190 0   0  514  258  4% 1 336586 118181 99%
c i  0.12 60 408 0   0  603  346  9% 1 336586 118178 99%
c }  0.18 60 346 0 100 1000  743 17% 2 336586 118178 99%
c [  0.18 60  0 0 100 1000  743  0% 0 336586 118178 99%
c O  0.18 60 723 0 100 1003  746 28% 2 336586 118178 99%
c ]  0.60 62 3717 0 101 3000 2629 67% 21 336586 118178 99%
c {  0.60 62 346 0 101 3000 2629 17% 2 336586 118178 99%
c F  0.61 62 347 0 103 3004 2633 17% 2 336586 118178 99%
c #  0.85 63 239 0 615 6005 5235 13% 4 336586 118178 99%
c }  1.00 63 235 0 859 7000 6184 15% 4 336586 118178 99%
c [  1.00 63 3717 0 859 7000 6184 67% 21 336586 118178 99%
c I  2.10 63 1642 0 861 10007 8830 44% 12 336586 118178 99%
c ]  3.54 64 917 0 864 15001 13214 29% 10 336586 118178 99%
c {  3.54 64 235 0 864 15001 13214 15% 4 336586 118178 99%
c B  3.54 64 235 0 867 15010 13223 15% 4 336586 118178 99%
c i  3.71 64 228 0 934 16245 14300 17% 4 336586 117918 99%
c i  3.73 64 236 0 936 16497 14497 18% 4 336586 117655 99%
c 
c  seconds   reductions     redundant  irredundant
c         MB     restarts          trail       variables
c           level     conflicts        glue          remaining
c 
c W  4.61 64 246 0 1819 21011 17826 25% 6 328202 117655 99%
c F  5.33 64 234 0 2215 28012 23824 23% 6 328202 117655 99%
c }  6.16 64 233 0 2625 31001 26476 24% 6 328202 117655 99%
c [  6.16 64 917 0 2625 31001 26476 29% 10 328202 117655 99%
c B  8.64 64 659 0 2628 36014 30888 29% 8 328202 117655 99%
c W 17.39 66 489 0 2632 45016 38977 37% 20 328202 117655 99%
c O 31.13 71 411 0 2634 55018 48357 45% 30 328202 117655 99%
c ] 35.20 72 371 0 2640 63002 55507 43% 26 328202 117655 99%
c { 35.20 72 233 0 2640 63002 55507 24% 6 328202 117655 99%
c B 36.43 73 234 0 3161 66020 58328 26% 7 328202 117655 99%
c W 39.44 76 227 0 5098 78023 69113 29% 9 328202 117655 99%
c # 41.19 77 217 0 5098 91025 81467 27% 8 328202 117655 99%
c B 44.80 80 214 0 6520 105027 94512 28% 9 328202 117655 99%
c i 47.65 83 217 0 7863 113043 101869 29% 9 328202 117653 99%
c W 50.09 106 215 0 8829 120030 107920 30% 9 328193 117652 99%
c } 52.85 106 219 0 10424 127002 114498 31% 10 328193 117652 99%
c [ 52.85 106 371 0 10424 127002 114498 43% 26 328193 117652 99%
c B 59.19 106 319 0 10428 136031 122726 42% 24 328193 117652 99%
c W 77.21 106 257 0 10433 153034 137654 45% 27 328193 117652 99%
c I 101.57 107 233 0 10436 171035 153146 49% 31 328193 117652 99%
c 
c  seconds     reductions       redundant    irredundant
c           MB      restarts            trail        variables
c             level      conflicts          glue           remaining
c 
c B 115.11 107 221 0 10447 190036 169820 46% 29 328193 117652 99%
c W 124.84 107 189 0 10455 210037 186062 45% 32 328193 117652 99%
c O 150.55 107 177 0 10463 231039 204447 47% 33 328193 117652 99%
c i 150.55 107 177 0 10463 231039 204447 47% 33 328193 117391 98%
... skipped 60 lines ...
c W 800.73 475 91 0 81035 1770099 1336194 21% 8 320363 116070 97%
c i 805.58 475 84 0 81140 1812249 1371172 20% 7 320363 116065 97%
c F 809.99 475 86 0 84537 1830103 1387223 20% 7 320363 116065 97%
c B 828.95 475 86 0 90281 1891104 1439110 21% 8 320363 116065 97%
c W 866.75 480 115 0 104921 1953106 1399500 26% 10 320348 116065 97%
c # 878.02 480 96 0 107500 2016108 1452805 24% 10 320348 116065 97%
c 
c  seconds    reductions          redundant   irredundant
c           MB     restarts               trail       variables
c            level        conflicts           glue          remaining
c 
c } 882.41 480 91 0 107963 2047004 1479676 23% 9 320348 116065 97%
c [ 882.41 480 100 0 107963 2047004 1479676 48% 34 320348 116065 97%
c I 892.82 480 84 0 107978 2080109 1507870 42% 30 320348 116065 97%
c B 919.04 480 69 0 107998 2145110 1566727 32% 23 320348 116065 97%
c W 937.24 482 56 0 108012 2211111 1621845 31% 25 320348 116065 97%
c O 954.41 482 49 0 108013 2278112 1678267 29% 25 320348 116065 97%
c B 975.85 482 44 0 108014 2346113 1738000 33% 26 320348 116065 97%
c W 995.23 482 42 0 108014 2415114 1797175 34% 28 320348 116065 97%
c I 1014.21 485 41 0 108044 2485115 1854384 34% 29 320348 116065 97%
c B 1054.40 487 49 0 108071 2556116 1918955 30% 23 320348 116065 97%
c W 1091.49 488 48 0 108082 2628118 1984176 27% 20 320348 116065 97%
c O 1114.08 493 44 0 108108 2701119 2046324 26% 22 320348 116065 97%
c B 1133.05 503 38 0 108139 2775120 2111150 32% 24 320348 116065 97%
c W 1154.59 516 36 0 108141 2850121 2173782 28% 24 320348 116065 97%
c I 1181.62 531 36 0 108160 2926123 2239700 26% 24 320348 116065 97%
c B 1205.47 542 36 0 108187 3003124 2299797 23% 22 320348 116065 97%
c W 1228.78 556 34 0 108204 3081125 2363229 22% 22 320348 116065 97%
c O 1255.16 570 32 0 108235 3160126 2424482 22% 22 320348 116065 97%
c B 1280.28 592 33 0 108266 3240129 2489072 28% 22 320348 116065 97%
c W 1301.85 608 35 0 108268 3321131 2556567 30% 23 320348 116065 97%
c 
c   seconds    reductions          redundant    irredundant
c            MB     restarts               trail        variables
c             level        conflicts           glue           remaining
c 
c I 1331.01 624 36 0 108269 3403133 2625044 31% 25 320348 116065 97%
c B 1373.30 637 45 0 108269 3486134 2700379 27% 16 320348 116065 97%
c W 1398.15 657 39 0 108270 3570135 2771546 29% 22 320348 116065 97%
c O 1428.56 673 38 0 108270 3655138 2846685 29% 23 320348 116065 97%
c B 1469.54 684 42 0 108270 3741139 2927920 26% 15 320348 116065 97%
c W 1505.00 697 40 0 108301 3828141 3008506 23% 11 320348 116065 97%
c I 1546.03 708 39 0 108333 3916142 3091466 21% 10 320348 116065 97%
c B 1580.29 719 39 0 108362 4005145 3163427 19% 10 320348 116065 97%
c ] 1590.97 724 42 0 108364 4026149 3182552 20% 10 320348 116065 97%
c ? 1590.97 724 42 0 108364 4026149 3182552 20% 10 320348 116065 97%
c 
c --- [ result ] -------------------------------------------------------------
c 
c UNKNOWN
c 
c --- [ run-time profiling ] -------------------------------------------------
c 
c process time taken by individual solving procedures
c (percentage relative to process time for solving)
c 
c      1590.91  100.00% search
c      1240.12   77.95% stable
c       344.76   21.67% unstable
c         6.02    0.38% walk
c         0.06    0.00% parse
c         0.00    0.00% lucky
c         0.00    0.00% simplify
c   =================================
c      1590.91  100.00% solve
c 
c last line shows process time for solving
c (percentage relative to total process time)
c 
c --- [ statistics ] ---------------------------------------------------------
c 
c chronological:           3315733        82.35 %  of conflicts
c conflicts:               4026149      2530.72    per second
c decisions:              96793815     60841.82    per second
c fixed:                      3253         2.73 %  of all variables
c learned:                 3971748        98.65 %  per conflict
c learned_lits:          189804787       100.00 %  learned literals
c minimized:                     0         0.00 %  learned literals
c shrunken:               75211915        39.63 %  learned literals
c minishrunken:           20906180        11.01 %  learned literals
c otfs:                      33932         0.84 %  of conflict
c propagations:        14927065475         9.38 M  per second
c rephased:                     89     45237.63    interval
c restarts:                 108364        37.15    interval
c stabilizing:                   6        66.02 %  of conflicts
c subsumed:                 444481        10.32 %  of all clauses
c strengthened:              29941         0.69 %  of all clauses
c walked:                       28    143791.04    interval
c 
c seconds are measured in process time for solving
c 
c --- [ resources ] ----------------------------------------------------------
c 
c total process time since initialization:      1590.97    seconds
c total real time since initialization:         1600.01    seconds
c maximum resident set size of process:          724.68    MB
c 
c --- [ shutting down ] ------------------------------------------------------
c 
c exit 0
